hw3:NetworkFlow/hw3_2.out
x :=
NIGERIA   HOUSTON     15056.3
NIGERIA   ROTTERDAM   23982
SAUDI     HOUSTON     16982
SAUDI     ROTTERDAM   26018
VENEZUELA HOUSTON     27961.7
VENEZUELA ROTTERDAM       4.91107e-09
;

Total_Cost = 3149000

